98 100
30 3 1
30 2 1
15 19 1
28 15 1
18 32 1
15 21 1
29 12 1
7 12 1
17 7 1
31 28 1
34 11 1
21 13 1
1 28 1
27 30 1
27 3 1
8 13 1
23 33 1
35 13 1
16 18 1
21 21 1
10 7 1
27 7 1
21 29 1
22 21 2
5 16 1
2 20 1
20 9 1
26 32 1
18 3 1
2 22 1
32 28 1
1 5 1
20 20 1
5 9 1
21 27 1
6 2 1
15 9 1
9 34 1
29 3 1
27 29 1
33 25 1
19 24 1
6 33 1
24 1 1
12 30 1
22 22 1
18 31 1
6 20 1
6 30 1
13 11 1
2 29 1
26 23 1
11 10 1
35 24 1
13 35 1
10 29 1
35 2 1
2 32 1
12 33 1
3 1 1
29 13 1
16 21 1
7 18 1
22 14 1
21 28 1
13 21 1
17 35 1
29 20 1
22 8 1
15 5 1
4 32 1
32 14 1
14 30 1
16 28 1
10 5 1
16 4 1
30 9 1
24 15 1
19 32 1
11 9 1
6 11 1
25 11 1
29 28 1
25 25 1
33 8 2
14 33 1
10 24 1
7 26 1
1 22 1
19 28 1
25 30 1
23 11 1
33 14 1
16 23 1
15 34 1
14 20 1
9 35 1
8 6 1
100 100 
100 100 
100 100 
100 100 
100 100 
100 100 
100 100 
100 100 
100 100 
100 100 
100 100 
100 100 
100 100 
100 100 
100 100 
100 100 
100 100 
100 100 
100 100 
100 100 
100 100 
100 100 
100 100 
100 100 
100 100 
100 100 
100 100 
100 100 
100 100 
100 100 
100 100 
100 100 
100 100 
100 100 
100 100 
100 100 
100 100 
100 100 
100 100 
100 100 
100 100 
100 100 
100 100 
100 100 
100 100 
100 100 
100 100 
100 100 
100 100 
100 100 
100 100 
100 100 
100 100 
100 100 
100 100 
100 100 
100 100 
100 100 
100 100 
100 100 
100 100 
100 100 
100 100 
100 100 
100 100 
100 100 
100 100 
100 100 
100 100 
100 100 
100 100 
100 100 
100 100 
100 100 
100 100 
100 100 
100 100 
100 100 
100 100 
100 100 
100 100 
100 100 
100 100 
100 100 
100 100 
100 100 
100 100 
100 100 
100 100 
100 100 
100 100 
100 100 
100 100 
100 100 
100 100 
100 100 
100 100 
100 100 
100 100 
100 100 
